32
120
83	1
79	2
78	1
75	1
71	1
68	1
66	1
62	3
60	3
59	1
58	1
57	1
54	2
52	1
51	2
46	2
45	1
41	1
39	1
38	1
33	1
29	2
28	2
25	1
24	1
23	1
20	3
19	2
18	1
17	4
14	1
13	3
